NAME: sim-grid-B-30
TYPE: TSP
COMMENT: Semi-regular Grid
DIMENSION: 30
EDGE_WEIGHT_TYPE: EUC_2D
NODE_COORD_SECTION
1 400 100
2 750 100
3 900 100
4 200 200
5 750 200
6 1100 200
7 1450 200
8 200 350
9 400 350
10 500 350
11 700 350
12 1100 350
13 1300 350
14 1400 350
15 200 450
16 400 450
17 500 450
18 700 450
19 800 450
20 1100 450
21 100 600
22 700 600
23 1150 600
24 1450 600
25 100 700
26 550 700
27 1000 700
28 1150 700
29 1300 700
30 1450 700
EOF
